0 24 45 3 14 41 27 22 45 5
24 0 74 64 27 62 26 26 83 59
45 74 0 96 63 11 47 20 97 37
3 64 96 0 9 55 58 78 25 25
14 27 63 9 0 45 78 42 81 29
41 62 11 55 45 0 50 77 82 4
27 26 47 58 78 50 0 5 84 79
22 26 20 78 42 77 5 0 53 60
45 83 97 25 81 82 84 53 0 99
5 59 37 25 29 4 79 60 99 0
